int NumberPatients = 109
int NumberOfRooms = 14
int NumberSurgeons = 7
int NumberOfDays = 6
Duration = [46,208,98,98,119,50,114,66,72,64,60,32,119,97,210,103,130,72,68,100,260,31,103,60,103,119,105,98,32,53,103,32,32,103,47,76,317,39,78,75,66,93,75,31,60,32,39,201,75,119,72,32,157,105,66,32,53,64,98,119,46,201,32,100,98,166,256,117,72,47,47,101,60,47,103,118,103,112,103,31,58,201,98,145,118,98,66,103,41,66,210,98,32,59,119,47,39,47,98,75,119,32,47,31,66,39,112,47,31];
Priority = [0,0,0,0,0,0,0,0,0,0,0,0,0,0,0,0,0,0,0,0,0,0,0,0,0,0,0,0,0,0,0,0,0,0,0,0,0,0,0,0,0,0,0,0,0,0,0,0,0,0,0,0,0,0,0,0,0,0,0,0,0,0,0,0,0,0,0,0,0,0,0,0,0,0,0,0,0,0,0,0,0,0,0,0,0,0,0,0,0,0,0,0,0,2,0,0,0,0,0,0,0,0,0,0,0,0,0,0,0];
Waiting = [38,51,196,58,35,25,77,354,151,106,113,305,221,281,141,214,70,128,148,84,366,59,21,46,410,178,366,38,214,556,43,43,78,150,25,165,36,316,95,59,31,149,43,361,37,24,135,141,67,21,164,84,23,438,36,23,394,52,319,361,63,66,60,134,50,177,428,107,66,151,53,141,459,67,53,127,74,37,151,32,115,59,120,214,494,66,70,78,58,57,21,120,158,39,70,155,101,30,176,50,94,52,43,155,178,67,37,267,59];
Surgeon = [6,4,6,1,1,4,4,6,1,4,7,1,2,1,3,3,2,3,2,2,1,9,3,9,3,6,6,5,12,1,1,1,2,5,7,5,10,2,5,2,5,12,3,9,7,5,4,1,3,1,6,2,2,3,2,1,2,2,9,7,5,3,6,2,5,4,2,2,5,2,6,1,3,16,2,3,2,3,6,12,6,2,3,11,6,11,4,6,2,5,6,1,6,4,6,4,6,6,2,3,1,2,3,6,6,8,5,1,1];
BlockAvailability = [[[0,0],[0,0],[1,0],[0,0],[0,0],[0,1],[0,0],[0,1],[0,1],[0,0],[1,0],[0,0],[0,0],[0,0]],[[0,1],[0,0],[0,0],[1,0],[1,0],[0,1],[0,1],[1,0],[0,0],[0,1],[0,0],[0,1],[0,0],[0,0]],[[0,1],[0,0],[0,1],[0,0],[1,0],[0,0],[0,1],[0,1],[0,1],[0,0],[0,1],[0,1],[0,0],[0,0]],[[0,1],[0,0],[0,0],[1,0],[1,0],[0,1],[0,0],[0,1],[0,0],[1,0],[0,0],[0,0],[0,1],[0,1]],[[0,0],[0,0],[1,0],[0,1],[1,0],[1,0],[0,1],[0,0],[0,1],[0,0],[0,0],[1,1],[0,0],[0,0]],[[0,0],[0,1],[0,0],[0,0],[0,0],[1,0],[0,0],[0,0],[1,0],[0,1],[0,0],[0,0],[1,0],[0,0]]];
SurgeonAvailability = [[[0,1],[1,1],[1,0],[0,1],[1,1],[0,1]],[[1,1],[0,1],[1,1],[1,1],[1,1],[1,1]],[[1,0],[1,1],[0,1],[0,1],[1,1],[1,1]],[[1,1],[1,1],[1,0],[1,0],[1,1],[0,1]],[[1,1],[1,1],[1,1],[1,0],[1,1],[1,1]],[[0,1],[0,1],[1,1],[1,1],[1,0],[1,0]],[[1,1],[1,1],[1,1],[0,1],[1,1],[1,1]]];
